cvc5/e240506803f8ad8d3bd802371317f10815fd940717184312be58f172_medium.txt
(define-fun key2 () String "cache-control")
(define-fun value2 () String "\u{d}\u{c}\u{d}")
(define-fun part_0_9613 () String "a")
(define-fun rest_0_1991 () String "ebvfuxzrqj")